(set-info :smt-lib-version 2.6)
(set-logic QF_UFLRA)
(set-info :source |
MathSat group

|)
(set-info :category "random")
(set-info :status sat)
(declare-fun x0 () Real)
(declare-fun x1 () Real)
(declare-fun x2 () Real)
(declare-fun x3 () Real)
(declare-fun x4 () Real)
(declare-fun x5 () Real)
(declare-fun x6 () Real)
(declare-fun x7 () Real)
(declare-fun x8 () Real)
(declare-fun x9 () Real)
(declare-fun x10 () Real)
(declare-fun x11 () Real)
(declare-fun x12 () Real)
(declare-fun x13 () Real)
(declare-fun x14 () Real)
(declare-fun x15 () Real)
(declare-fun x16 () Real)
(declare-fun x17 () Real)
(declare-fun x18 () Real)
(declare-fun x19 () Real)
(declare-fun x20 () Real)
(declare-fun x21 () Real)
(declare-fun x22 () Real)
(declare-fun x23 () Real)
(declare-fun x24 () Real)
(declare-fun x25 () Real)
(declare-fun x26 () Real)
(declare-fun x27 () Real)
(declare-fun x28 () Real)
(declare-fun x29 () Real)
(declare-fun x30 () Real)
(declare-fun x31 () Real)
(declare-fun x32 () Real)
(declare-fun x33 () Real)
(declare-fun x34 () Real)
(declare-fun x35 () Real)
(declare-fun x36 () Real)
(declare-fun x37 () Real)
(declare-fun x38 () Real)
(declare-fun x39 () Real)
(declare-fun x40 () Real)
(declare-fun x41 () Real)
(declare-fun x42 () Real)
(declare-fun x43 () Real)
(declare-fun x44 () Real)
(declare-fun x45 () Real)
(declare-fun x46 () Real)
(declare-fun x47 () Real)
(declare-fun x48 () Real)
(declare-fun x49 () Real)
(declare-fun f0_1 (Real) Real)
(declare-fun f0_2 (Real Real) Real)
(declare-fun f0_3 (Real Real Real) Real)
(declare-fun f0_4 (Real Real Real Real) Real)
(declare-fun P0 () Bool)
(declare-fun P1 () Bool)
(declare-fun P2 () Bool)
(declare-fun P3 () Bool)
(declare-fun P4 () Bool)
(declare-fun P5 () Bool)
(declare-fun P6 () Bool)
(declare-fun P7 () Bool)
(declare-fun P8 () Bool)
(declare-fun P9 () Bool)
(declare-fun P10 () Bool)
(declare-fun P11 () Bool)
(declare-fun P12 () Bool)
(declare-fun P13 () Bool)
(declare-fun P14 () Bool)
(declare-fun P15 () Bool)
(declare-fun P16 () Bool)
(declare-fun P17 () Bool)
(declare-fun P18 () Bool)
(declare-fun P19 () Bool)
(declare-fun P20 () Bool)
(declare-fun P21 () Bool)
(declare-fun P22 () Bool)
(declare-fun P23 () Bool)
(declare-fun P24 () Bool)
(declare-fun P25 () Bool)
(declare-fun P26 () Bool)
(declare-fun P27 () Bool)
(declare-fun P28 () Bool)
(declare-fun P29 () Bool)
(declare-fun P30 () Bool)
(declare-fun P31 () Bool)
(declare-fun P32 () Bool)
(declare-fun P33 () Bool)
(declare-fun P34 () Bool)
(declare-fun P35 () Bool)
(declare-fun P36 () Bool)
(declare-fun P37 () Bool)
(declare-fun P38 () Bool)
(declare-fun P39 () Bool)
(declare-fun P40 () Bool)
(declare-fun P41 () Bool)
(declare-fun P42 () Bool)
(declare-fun P43 () Bool)
(declare-fun P44 () Bool)
(declare-fun P45 () Bool)
(declare-fun P46 () Bool)
(declare-fun P47 () Bool)
(declare-fun P48 () Bool)
(declare-fun P49 () Bool)
(assert (let ((?v_85 (* 22 x8)) (?v_84 (* 13 x33)) (?v_74 (* 17 x12)) (?v_51 (* 17 x20))) (let ((?v_247 (distinct (- (- (* 27 x41) ?v_51) (* 23 x25)) 10)) (?v_258 (< (- (- (* 20 x37) (* 4 x43)) (* 17 x4)) 26)) (?v_128 (< (+ (- (* 9 x36) (* 22 x28)) (* 23 x44)) 6)) (?v_22 (* 16 x20)) (?v_229 (= (+ (- (* 25 x34) (* 19 x1)) (* 26 x42)) 3)) (?v_19 (<= (- (- (* 23 x42) (* 14 x32)) (* 5 x22)) 16)) (?v_47 (= (- (- (* 17 x32) (* 16 x41)) (* 13 x8)) 22)) (?v_130 (* 25 x19))) (let ((?v_32 (<= (- (+ (* 11 x19) (* 11 x27)) ?v_130) 17)) (?v_28 (< (- (- (* 7 x41) (* 26 x43)) (* 18 x30)) 13)) (?v_40 (<= (- (- (* 23 x16) (* 14 x43)) (* 4 x21)) 13)) (?v_9 (< (+ (- (* 13 x42) (* 17 x44)) (* 25 x39)) 22)) (?v_3 (< (+ (- (* 2 x38) (* 27 x9)) (* 2 x46)) 4)) (?v_146 (= (f0_2 x9 x48) (f0_2 x39 x12))) (?v_2 (distinct (f0_2 x20 x48) x11)) (?v_8 (distinct x19 (f0_1 x26))) (?v_43 (f0_1 x1))) (let ((?v_122 (distinct ?v_43 ?v_43)) (?v_6 (f0_1 x19))) (let ((?v_108 (distinct ?v_6 x0)) (?v_38 (= x42 (f0_2 x17 x32))) (?v_197 (= (f0_2 x35 x7) x46)) (?v_249 (= x18 (f0_2 x49 x21))) (?v_118 (distinct (f0_2 x23 x37) x7)) (?v_66 (f0_2 x34 x6))) (let ((?v_194 (= ?v_66 (f0_2 x28 x48))) (?v_154 (f0_1 x33))) (let ((?v_213 (= ?v_154 (f0_2 x18 x33))) (?v_0 (distinct ?v_6 x42)) (?v_100 (distinct ?v_43 (f0_2 x10 x38))) (?v_153 (distinct (f0_2 x25 x12) (f0_1 x15))) (?v_36 (distinct x30 x47)) (?v_129 (= (f0_1 x13) x47)) (?v_117 (distinct (f0_2 x16 x29) (f0_1 x20))) (?v_87 (distinct x15 (f0_2 x37 x28))) (?v_31 (distinct x24 x38)) (?v_93 (distinct (f0_2 x18 x9) (f0_1 x32))) (?v_212 (= x0 (f0_2 x33 x25))) (?v_148 (= (f0_2 x10 x27) (f0_2 x27 x43))) (?v_88 (distinct x19 x12)) (?v_125 (distinct (f0_1 x12) (f0_1 x5))) (?v_164 (distinct ?v_154 (f0_2 x13 x18))) (?v_33 (= (f0_2 x32 x35) x42)) (?v_70 (distinct (f0_2 x45 x28) (f0_2 x33 x42))) (?v_171 (distinct (f0_2 x44 x18) (f0_2 x25 x30))) (?v_53 (= (f0_2 x48 x12) (f0_1 x3))) (?v_76 (distinct (f0_1 x30) (f0_1 x23))) (?v_127 (distinct x24 (f0_1 x36))) (?v_59 (f0_1 x24))) (let ((?v_50 (= (f0_1 x2) ?v_59)) (?v_4 (= x43 (f0_1 x29))) (?v_121 (distinct x1 x25)) (?v_23 (f0_1 x7)) (?v_203 (= (f0_2 x24 x19) (f0_1 x40))) (?v_5 (= x23 (f0_2 x39 x37))) (?v_24 (f0_1 x37))) (let ((?v_172 (distinct ?v_23 ?v_24)) (?v_110 (= (f0_2 x2 x0) (f0_2 x43 x20))) (?v_73 (distinct (f0_2 x28 x0) x30)) (?v_143 (= ?v_24 x47)) (?v_86 (= (f0_2 x15 x2) ?v_66)) (?v_219 (= (f0_2 x31 x1) ?v_59)) (?v_57 (= x5 (f0_2 x6 x25))) (?v_1 (distinct (f0_2 x15 x6) (f0_2 x26 x7))) (?v_139 (= x48 x36)) (?v_48 (distinct (f0_2 x1 x12) x48)) (?v_97 (= (f0_2 x2 x33) x33)) (?v_245 (distinct (f0_2 x41 x41) x47)) (?v_150 (= (f0_1 x17) (f0_1 x42))) (?v_237 (not ?v_249)) (?v_120 (not P19)) (?v_46 (not P2)) (?v_107 (not ?v_258)) (?v_188 (not ?v_88)) (?v_161 (not ?v_19)) (?v_165 (not P22)) (?v_163 (not ?v_197)) (?v_123 (not P40)) (?v_7 (not ?v_125))) (let ((?v_246 (not ?v_143)) (?v_16 (not ?v_1)) (?v_82 (not P47)) (?v_34 (not ?v_2)) (?v_224 (not ?v_171)) (?v_200 (not ?v_4)) (?v_68 (not ?v_5)) (?v_21 (not ?v_108)) (?v_10 (not ?v_8)) (?v_218 (not P4)) (?v_113 (not P17)) (?v_189 (not (distinct ?v_23 x3))) (?v_119 (not P23)) (?v_29 (not P16)) (?v_138 (not ?v_38)) (?v_30 (not P18)) (?v_18 (not ?v_32)) (?v_116 (not ?v_47)) (?v_95 (not ?v_121)) (?v_179 (not ?v_203)) (?v_77 (not ?v_172)) (?v_99 (not P35)) (?v_44 (not P0)) (?v_71 (not ?v_31)) (?v_259 (not P5)) (?v_49 (not P3)) (?v_170 (not ?v_28)) (?v_195 (not P25)) (?v_198 (not ?v_36)) (?v_96 (not ?v_48)) (?v_134 (not P13)) (?v_137 (not P38)) (?v_92 (not ?v_40)) (?v_241 (not ?v_9)) (?v_136 (not ?v_122)) (?v_185 (not ?v_3)) (?v_83 (not ?v_87)) (?v_72 (not P36)) (?v_67 (not P20)) (?v_58 (not ?v_50)) (?v_91 (not P37)) (?v_248 (not ?v_110)) (?v_65 (not P15)) (?v_205 (not P11)) (?v_69 (not P44)) (?v_89 (not P46)) (?v_78 (not ?v_57)) (?v_112 (not P33)) (?v_206 (not P14)) (?v_81 (not P27)) (?v_181 (not P28)) (?v_169 (not ?v_53)) (?v_94 (not ?v_73)) (?v_187 (not ?v_76)) (?v_106 (not ?v_128)) (?v_243 (not ?v_86)) (?v_256 (not P21)) (?v_166 (not ?v_33)) (?v_159 (not P32)) (?v_192 (not ?v_93)) (?v_152 (not ?v_97)) (?v_230 (not P34)) (?v_109 (not ?v_150)) (?v_211 (not ?v_100)) (?v_132 (not ?v_70)) (?v_167 (not P12)) (?v_115 (not P26)) (?v_190 (not P29)) (?v_175 (not ?v_229)) (?v_176 (not ?v_117)) (?v_214 (not P30)) (?v_184 (not P45)) (?v_178 (not ?v_118)) (?v_201 (not P6)) (?v_158 (not P49)) (?v_145 (not P7)) (?v_141 (not ?v_245)) (?v_225 (not ?v_127)) (?v_193 (not P39)) (?v_196 (not P41)) (?v_228 (not P1)) (?v_180 (not ?v_153)) (?v_217 (not ?v_148)) (?v_182 (not ?v_212)) (?v_253 (not ?v_139)) (?v_191 (not ?v_164)) (?v_242 (not ?v_129)) (?v_251 (not P43)) (?v_199 (not P9)) (?v_209 (not P10)) (?v_223 (not ?v_0)) (?v_244 (not P24)) (?v_261 (not ?v_194)) (?v_233 (not ?v_219)) (?v_239 (not P42)) (?v_226 (not P31)) (?v_260 (or ?v_121 ?v_76)) (?v_227 (not P8)) (?v_240 (not ?v_146)) (?v_262 (not ?v_213)) (?v_263 (not P48)) (?v_14 (= (+ (- x43 (* 10 x31)) (* 25 x18)) 0))) (let ((?v_26 (not ?v_14)) (?v_25 (< (+ (* 7 x48) ?v_22 (* 16 x49)) 26)) (?v_13 (= (- (* 8 x48) 0) 22))) (let ((?v_183 (not ?v_13)) (?v_60 (not ?v_25)) (?v_54 (< (+ (* 8 x0) (* 13 x31) (* 2 x21)) 17)) (?v_75 (<= (- (* 2 x3) (* 20 x2)) 0))) (let ((?v_157 (not ?v_75)) (?v_235 (not ?v_54)) (?v_210 (<= (+ (* 19 x7) (* 6 x31)) 6))) (let ((?v_234 (not ?v_210)) (?v_124 (< (+ (* 13 x1) (* 21 x46) (* 6 x25)) 26))) (let ((?v_144 (not ?v_124)) (?v_35 (= (- (+ (* 24 x35) (* 13 x5)) (* 6 x14)) (- 22))) (?v_11 (< (- (- (* 6 x7) (* 19 x19)) ?v_85) (- 6))) (?v_55 (< (+ (* (- 1) x9) (* 7 x2) (* 26 x18)) 23)) (?v_42 (< (+ ?v_74 (* 9 x38) (* 9 x26)) (- 17))) (?v_131 (<= (+ (* 5 x21) (* 25 x23) (* 11 x6)) (- 13)))) (let ((?v_64 (not ?v_131)) (?v_155 (<= (+ x8 (* 7 x11)) (- 21)))) (let ((?v_257 (not ?v_155)) (?v_80 (= (- (+ (* (- 24) x33) (* 5 x39)) (* 23 x47)) (- 19)))) (let ((?v_17 (not ?v_80)) (?v_104 (<= (- (+ (* (- 9) x33) (* 19 x36)) (* 19 x32)) (- 8)))) (let ((?v_98 (not ?v_104)) (?v_20 (distinct (- (+ (* (- 18) x16) (* 15 x25)) (* 14 x17)) 28)) (?v_12 (< (- (- (* (- 15) x39) (* 3 x43)) (* 2 x10)) (- 7)))) (let ((?v_207 (not ?v_12))) (let ((?v_232 (or ?v_20 ?v_207)) (?v_140 (<= (- (+ (* (- 3) x35) (* 22 x40)) (* 18 x1)) (- 23))) (?v_216 (< (+ (* (- 9) x1) (* 23 x1) (* 17 x15)) (- 27)))) (let ((?v_45 (not ?v_216)) (?v_15 (<= (+ (- (* 14 x28) (* 16 x2)) (* 9 x15)) (- 20)))) (let ((?v_39 (not ?v_15)) (?v_177 (distinct (- (- (* (- 11) x12) x26) (* 8 x6)) (- 27)))) (let ((?v_156 (not ?v_177)) (?v_37 (< (+ (- (* 4 x18) 0) (* 11 x38)) (- 18)))) (let ((?v_90 (not ?v_37)) (?v_41 (< (+ (* (- 25) x29) (* 15 x33) (* 15 x5)) 19)) (?v_151 (= (+ (* (- 3) x25) ?v_22 (* 2 x1)) (- 7)))) (let ((?v_103 (not ?v_151)) (?v_162 (= (+ (* (- 2) x45) (* 16 x6) (* 27 x15)) 21))) (let ((?v_56 (not ?v_162)) (?v_27 (< (+ (- (* (- 1) x25) (* 2 x24)) (* 11 x45)) (- 25)))) (let ((?v_111 (not ?v_27)) (?v_63 (< (+ (- (* (- 26) x0) 0) ?v_84) (- 8))) (?v_79 (not ?v_20)) (?v_135 (not ?v_35)) (?v_114 (not ?v_41)) (?v_52 (not ?v_42)) (?v_62 (< (- (+ (* (- 7) x37) (* 3 x13)) ?v_51) (- 27))) (?v_61 (< (- (- (* (- 1) x27) (* 2 x32)) (* 9 x14)) (- 24))) (?v_102 (not ?v_55)) (?v_101 (< (+ (- 0 (* 16 x31)) (* 13 x18)) (- 2)))) (let ((?v_160 (not ?v_61)) (?v_142 (= (+ (* (- 23) x5) (* 7 x1) ?v_74) (- 9)))) (let ((?v_147 (not ?v_142)) (?v_186 (< (- (- (* (- 4) x26) ?v_84) ?v_85) (- 11)))) (let ((?v_105 (not ?v_186)) (?v_126 (= (+ (- (* (- 23) x4) (* 25 x44)) (* 16 x5)) 26)) (?v_215 (<= (+ (* 18 x12) (* 12 x41) (* 12 x11)) (- 15)))) (let ((?v_221 (not ?v_126)) (?v_222 (not ?v_63)) (?v_231 (distinct (+ (- (* 23 x4) 0) (* 7 x36)) (- 17)))) (let ((?v_204 (not ?v_231)) (?v_133 (<= (- (- (* 25 x37) (* 27 x48)) (* 17 x36)) (- 17))) (?v_149 (= (- (- (* (- 27) x9) (* 5 x7)) ?v_130) 11)) (?v_238 (not ?v_140)) (?v_252 (< (+ (- (* 27 x25) (* 23 x19)) (* 15 x24)) (- 14)))) (let ((?v_168 (not ?v_252)) (?v_173 (or ?v_45 ?v_152)) (?v_174 (not ?v_11)) (?v_208 (< (+ (* (- 15) x22) (* 22 x15) (* 2 x12)) 0))) (let ((?v_202 (not ?v_208)) (?v_220 (not ?v_133)) (?v_236 (not ?v_215)) (?v_250 (not ?v_101)) (?v_255 (not ?v_149)) (?v_254 (not ?v_62))) (and (and (and (and (and (and (and (and (and (and (and (and (and (and (and (and (and (and (and (and (and (and (and (and (and (and (and (and (and (and (and (and (and (and (and (and (and (and (and (and (and (and (and (and (and (and (and (and (and (and (and (and (and (and (and (and (and (and (and (and (and (and (and (and (and (and (and (and (and (and (and (and (and (and (and (and (and (and (and (and (and (and (and (and (and (and (and (and (and (and (and (and (and (and (and (and (and (and (and (and (and (and (and (and (and (and (and (and (and (and (and (and (and (and (and (and (and (and (and (and (and (and (and (and (and (and (and (and (and (and (and (and (and (and (and (and (and (and (and (and (and (and (and (and (and (and (and (and (and (and (and (and (and (and (and (and (and (and (and (and (and (and (and (and (and (and (and (and (and (and (and (and (and (and (and (and (and (and (and (and (and (and (and (and (and (and (and (and (and (and (and (and (and (and (and (and (and (and (and (and (and (and (and (and (and (and (and (and (and (and (and (and (and (and (and (and (and (and (and (and (and (and (and (and (and (and (and (and (and (and (and (and (and (and (and (and (and (and (and (and (and (and (and (and (and (and (and (and (and (and (and (and (and (and (and (and (and (and (and (and (and (and (and (and (and (and (and (and (and (and (and (and (and (and (and (and (and (and (and (and (and (and (and (and (and (and (and (and (and (and (and (and (and (and (and (and (and (and (and (and (and (and (and (and (and (and (and (and (and (and (and (and (and (and (and (and (and (and (and (and (and (and (and (and (and (and (and (and (and (and (and (and (and (and (and (and (and (and (and (and (and (and (and (and (and (and (and (and (and (and (and (and (and (and (and (and (and (and (and (and (and (and (and (and (and (and (and (and (and (and (and (and (and (and (and (and (and (and (and (and (and (and (and (and (and (and (and (and (and (and (and (and (and (and (and (and (and (and (and (and (and (and (and (and (and (and (and (and (and (and (and (and (and (and (and (and (and (and (and (and (and (and (and (and (and (and (and (and (and (and (and (and (and (and (and (and (and (and (and (and (and (and (and (and (and (and (and (and (and (and (and (and (and (and (and (and (and (and (and (and (and (and (and (and (and (and (and (and (and (and (and (and (and (and (and (and (and (and (and (and (and (and (and (and (and (and (and (and (and (and (and (and (and (and (and (and (and (and (and (and (and (and (and (and (and (and (and (and (and (and (and (and (and (and (and (and (and (and (and (and (and (and (and (and (and (and (and (and (and (and (and (and (and (and (and (and (and (and (and (and (and (and (and (and (and (and (and (and (and (and (and (and (and (and (and (and (and (and (and (and (and (and (and (and (and (and (and (and (and (and (and (and (and (and (and (and (and (and (and (and (and (and (and (and (and (and (and (and (and (and (and (and (and (and (and (and (and (and (and (or (or ?v_35 ?v_11) ?v_237) (or (or P30 ?v_120) ?v_2)) (or (or ?v_46 ?v_55) ?v_33)) (or (or ?v_97 ?v_107) ?v_42)) (or (or P29 ?v_0) ?v_26)) (or (or ?v_0 ?v_8) ?v_188)) (or (or ?v_161 P44) ?v_1)) (or (or P39 ?v_9) ?v_4)) (or (or ?v_165 ?v_194) P49)) (or (or ?v_163 P3) ?v_1)) (or (or ?v_5 ?v_28) ?v_64)) (or (or ?v_257 ?v_36) P49)) (or (or ?v_3 ?v_17) P3)) (or (or ?v_98 ?v_123) ?v_7)) (or ?v_232 ?v_246)) (or (or ?v_16 P3) ?v_82)) (or (or ?v_25 ?v_34) P27)) (or (or ?v_140 ?v_45) ?v_118)) (or (or ?v_224 ?v_39) ?v_3)) (or (or ?v_200 ?v_93) P48)) (or (or ?v_68 P12) P43)) (or (or ?v_21 ?v_156) ?v_7)) (or (or ?v_10 ?v_218) ?v_9)) (or (or ?v_70 ?v_113) P24)) (or (or ?v_31 ?v_247) ?v_183)) (or (or P34 ?v_10) ?v_90)) (or (or ?v_57 ?v_189) ?v_11)) (or (or ?v_119 ?v_29) P25)) (or (or ?v_138 ?v_30) ?v_12)) (or (or ?v_139 ?v_18) P25)) (or (or ?v_116 ?v_100) ?v_13)) (or (or ?v_14 ?v_15) ?v_16)) (or (or ?v_17 ?v_41) ?v_18)) (or (or ?v_19 ?v_20) P33)) (or (or ?v_21 ?v_95) ?v_179)) (or (or ?v_103 ?v_77) ?v_60)) (or (or ?v_56 ?v_4) P15)) (or (or ?v_26 ?v_16) ?v_111)) (or (or ?v_1 ?v_63) ?v_27)) (or (or ?v_28 ?v_40) ?v_29)) (or (or ?v_30 ?v_153) ?v_99)) (or (or ?v_44 P2) P40)) (or (or ?v_71 ?v_32) ?v_259)) (or (or P19 P28) ?v_49)) (or (or ?v_50 ?v_79) ?v_33)) (or (or ?v_34 ?v_15) ?v_135)) (or (or ?v_170 ?v_12) P28)) (or (or ?v_195 P34) ?v_117)) (or (or P1 ?v_25) P31)) (or (or ?v_198 ?v_37) P25)) (or (or ?v_96 ?v_134) ?v_146)) (or (or ?v_31 P35) ?v_129)) (or (or ?v_38 ?v_137) P3)) (or (or ?v_39 ?v_92) ?v_26)) (or (or P33 ?v_76) ?v_1)) (or (or ?v_114 ?v_241) ?v_53)) (or (or ?v_52 ?v_54) ?v_136)) (or (or ?v_44 P46) ?v_45)) (or (or P3 ?v_185) ?v_4)) (or (or ?v_25 P12) ?v_83)) (or (or ?v_34 ?v_9) ?v_46)) (or (or ?v_47 ?v_72) P15)) (or (or ?v_67 ?v_164) ?v_48)) (or (or ?v_41 ?v_15) ?v_49)) (or (or ?v_58 ?v_62) ?v_73)) (or (or ?v_52 ?v_14) ?v_53)) (or (or ?v_91 ?v_54) ?v_248)) (or (or ?v_61 ?v_102) ?v_65)) (or (or ?v_101 P46) ?v_10)) (or (or ?v_205 P29) ?v_20)) (or (or ?v_69 ?v_56) ?v_89)) (or (or ?v_78 ?v_58) ?v_20)) (or (or ?v_219 ?v_60) P14)) (or (or ?v_112 ?v_160) ?v_62)) (or (or ?v_63 ?v_64) ?v_206)) (or (or ?v_40 ?v_2) ?v_65)) (or (or ?v_86 ?v_67) ?v_40)) (or (or ?v_68 ?v_81) ?v_181)) (or (or ?v_169 ?v_69) ?v_70)) (or (or ?v_71 ?v_3) ?v_72)) (or (or ?v_157 ?v_49) ?v_94)) (or (or ?v_147 ?v_42) ?v_75)) (or (or ?v_187 ?v_106) ?v_77)) (or (or ?v_78 P1) ?v_79)) (or (or ?v_13 P14) P17)) (or (or ?v_17 ?v_80) ?v_81)) (or (or ?v_82 ?v_83) ?v_1)) (or (or P20 P26) ?v_127)) (or (or ?v_25 ?v_82) ?v_105)) (or (or ?v_243 ?v_87) ?v_88)) (or (or ?v_89 P7) ?v_256)) (or (or ?v_90 ?v_25) ?v_235)) (or (or ?v_45 ?v_91) ?v_39)) (or (or ?v_166 ?v_92) ?v_159)) (or (or ?v_87 ?v_58) ?v_78)) (or (or ?v_192 ?v_94) ?v_95)) (or (or ?v_96 P35) ?v_41)) (or (or ?v_234 ?v_152) ?v_230)) (or (or ?v_48 ?v_75) ?v_37)) (or (or ?v_26 ?v_109) P31)) (or (or ?v_63 P23) ?v_98)) (or (or ?v_34 P9) ?v_99)) (or (or ?v_211 ?v_101) ?v_132)) (or (or ?v_102 ?v_103) ?v_104)) (or (or ?v_78 P40) P6)) (or (or ?v_126 ?v_12) ?v_70)) (or (or ?v_105 ?v_106) ?v_107)) (or (or ?v_167 ?v_108) P3)) (or (or ?v_109 ?v_110) ?v_0)) (or (or ?v_7 ?v_115) ?v_111)) (or (or ?v_30 P36) P38)) (or (or ?v_79 P41) ?v_112)) (or (or P25 ?v_190) P19)) (or (or ?v_113 ?v_53) P3)) (or (or ?v_104 ?v_175) ?v_114)) (or (or ?v_115 ?v_124) ?v_75)) (or (or ?v_100 ?v_35) ?v_116)) (or (or ?v_78 ?v_39) ?v_13)) (or (or ?v_176 ?v_2) ?v_214)) (or (or ?v_184 ?v_178) ?v_119)) (or (or ?v_120 ?v_121) ?v_122)) (or (or ?v_100 ?v_123) ?v_201)) (or (or ?v_120 ?v_144) ?v_125)) (or (or ?v_215 ?v_50) ?v_221)) (or (or ?v_117 ?v_64) ?v_222)) (or (or ?v_77 ?v_204) ?v_95)) (or (or ?v_61 P22) ?v_69)) (or (or P16 ?v_127) ?v_128)) (or (or ?v_57 ?v_98) ?v_116)) (or (or ?v_129 ?v_133) P40)) (or (or ?v_149 ?v_131) ?v_92)) (or (or ?v_98 P32) ?v_132)) (or (or ?v_11 ?v_31) ?v_124)) (or (or ?v_133 ?v_21) ?v_134)) (or (or ?v_148 ?v_75) ?v_131)) (or (or ?v_158 ?v_106) ?v_145)) (or (or ?v_135 ?v_11) ?v_83)) (or (or P9 ?v_38) ?v_117)) (or (or ?v_132 ?v_141) ?v_134)) (or (or P38 P24) ?v_5)) (or (or ?v_136 ?v_19) P27)) (or (or ?v_27 ?v_137) ?v_80)) (or (or P18 ?v_65) ?v_127)) (or (or ?v_138 ?v_63) ?v_94)) (or (or ?v_29 P39) ?v_139)) (or (or ?v_49 ?v_39) P20)) (or (or ?v_238 P1) ?v_141)) (or (or P5 P36) ?v_142)) (or (or ?v_132 ?v_82) P14)) (or (or ?v_225 ?v_113) ?v_52)) (or (or ?v_143 ?v_144) ?v_145)) (or (or ?v_146 ?v_147) ?v_148)) (or (or ?v_149 ?v_150) P30)) (or (or ?v_20 ?v_168) ?v_38)) (or (or P13 ?v_2) P36)) (or (or ?v_16 ?v_151) ?v_119)) (or (or ?v_32 ?v_16) ?v_193)) (or (or P8 ?v_126) ?v_36)) (or ?v_173 ?v_34)) (or (or ?v_153 ?v_70) ?v_196)) (or (or ?v_133 ?v_77) ?v_109)) (or (or ?v_69 ?v_174) ?v_76)) (or (or P26 ?v_36) ?v_91)) (or (or ?v_213 P23) ?v_155)) (or (or ?v_156 ?v_133) ?v_91)) (or (or ?v_202 ?v_157) P39)) (or (or ?v_56 ?v_53) ?v_5)) (or (or ?v_228 ?v_35) ?v_114)) (or (or ?v_114 ?v_11) ?v_3)) (or (or P28 ?v_158) ?v_159)) (or (or P8 ?v_160) ?v_157)) (or (or ?v_161 ?v_220) ?v_125)) (or (or ?v_15 P35) ?v_87)) (or (or ?v_65 ?v_72) ?v_162)) (or (or ?v_163 ?v_53) P21)) (or (or ?v_164 ?v_118) ?v_165)) (or (or ?v_166 ?v_167) ?v_168)) (or (or ?v_126 ?v_110) ?v_180)) (or (or ?v_169 ?v_170) ?v_115)) (or (or P10 ?v_217) ?v_99)) (or (or ?v_75 ?v_171) ?v_172)) (or (or ?v_113 ?v_132) ?v_170)) (or ?v_173 P31)) (or (or ?v_182 ?v_159) ?v_132)) (or (or ?v_104 ?v_163) P5)) (or (or P40 P24) ?v_131)) (or (or ?v_253 ?v_31) P12)) (or (or P43 ?v_146) P18)) (or (or ?v_174 ?v_175) ?v_191)) (or (or ?v_242 ?v_157) ?v_108)) (or (or ?v_161 ?v_176) ?v_177)) (or (or ?v_251 ?v_174) ?v_1)) (or (or ?v_178 P44) ?v_11)) (or (or ?v_31 P34) ?v_179)) (or (or ?v_0 ?v_180) ?v_181)) (or (or ?v_182 P46) ?v_183)) (or (or ?v_184 ?v_175) ?v_57)) (or (or ?v_143 ?v_18) ?v_185)) (or (or ?v_34 ?v_179) ?v_151)) (or (or ?v_8 ?v_186) ?v_156)) (or (or ?v_83 ?v_80) P32)) (or (or ?v_5 P34) ?v_187)) (or (or ?v_32 ?v_17) ?v_71)) (or (or ?v_117 ?v_128) ?v_188)) (or (or P3 P11) ?v_189)) (or (or ?v_190 ?v_120) ?v_61)) (or (or P37 ?v_170) ?v_174)) (or (or ?v_199 ?v_191) ?v_192)) (or (or ?v_193 ?v_124) ?v_194)) (or (or P24 P43) ?v_108)) (or (or ?v_144 ?v_209) P28)) (or (or ?v_185 ?v_64) P14)) (or (or ?v_195 ?v_196) ?v_54)) (or (or ?v_223 ?v_83) ?v_79)) (or (or ?v_115 ?v_100) ?v_92)) (or (or ?v_111 P37) ?v_197)) (or (or ?v_99 ?v_144) ?v_192)) (or (or ?v_174 ?v_198) ?v_144)) (or (or ?v_101 P42) P22)) (or (or ?v_82 ?v_60) ?v_195)) (or (or ?v_199 ?v_145) ?v_98)) (or (or ?v_8 ?v_100) P10)) (or (or ?v_7 ?v_200) P23)) (or (or ?v_201 P31) ?v_72)) (or (or P46 P41) ?v_202)) (or (or ?v_29 ?v_50) ?v_46)) (or (or P40 P4) ?v_203)) (or (or ?v_204 ?v_205) ?v_194)) (or (or ?v_137 ?v_15) P1)) (or (or ?v_4 ?v_54) ?v_152)) (or (or P14 ?v_155) P9)) (or (or ?v_206 ?v_207) ?v_190)) (or (or ?v_44 ?v_13) P14)) (or (or P16 ?v_208) ?v_64)) (or (or ?v_244 ?v_36) ?v_71)) (or (or ?v_34 ?v_209) ?v_36)) (or (or ?v_210 ?v_106) ?v_12)) (or (or ?v_123 ?v_211) ?v_36)) (or (or ?v_203 ?v_46) ?v_48)) (or (or ?v_18 ?v_105) ?v_197)) (or (or ?v_93 P24) ?v_212)) (or (or ?v_119 ?v_27) ?v_109)) (or (or ?v_117 ?v_54) ?v_213)) (or (or ?v_164 ?v_62) P37)) (or (or ?v_46 ?v_214) ?v_196)) (or (or ?v_7 ?v_177) ?v_261)) (or (or ?v_169 ?v_9) ?v_34)) (or (or P35 ?v_197) ?v_209)) (or (or ?v_67 P47) P13)) (or (or ?v_142 ?v_236) ?v_139)) (or (or ?v_143 ?v_53) ?v_110)) (or (or ?v_71 ?v_0) P14)) (or (or ?v_15 ?v_102) ?v_216)) (or (or ?v_191 ?v_143) ?v_14)) (or (or ?v_171 ?v_203) ?v_250)) (or (or ?v_217 ?v_142) ?v_128)) (or (or ?v_56 ?v_211) ?v_218)) (or (or ?v_198 P39) ?v_191)) (or (or ?v_34 ?v_153) P3)) (or (or ?v_180 ?v_30) ?v_111)) (or (or ?v_233 ?v_91) ?v_39)) (or (or P28 ?v_239) ?v_29)) (or (or P26 ?v_142) ?v_133)) (or (or ?v_220 ?v_61) ?v_96)) (or (or ?v_142 P48) ?v_94)) (or (or ?v_226 ?v_27) ?v_133)) (or (or P0 ?v_189) ?v_197)) (or ?v_260 ?v_150)) (or (or ?v_112 ?v_195) ?v_221)) (or (or ?v_87 ?v_189) ?v_41)) (or (or ?v_7 ?v_133) ?v_89)) (or (or ?v_176 P23) ?v_101)) (or (or ?v_39 ?v_77) P2)) (or (or ?v_69 ?v_122) ?v_172)) (or (or ?v_128 ?v_129) P38)) (or (or ?v_162 ?v_56) P21)) (or (or ?v_91 ?v_53) P1)) (or (or ?v_214 ?v_205) ?v_79)) (or (or P45 P32) ?v_55)) (or (or P48 P7) ?v_27)) (or (or ?v_99 ?v_30) ?v_12)) (or (or P33 ?v_155) ?v_21)) (or (or ?v_106 ?v_179) ?v_103)) (or (or ?v_188 ?v_25) ?v_34)) (or (or ?v_113 ?v_73) ?v_222)) (or (or ?v_103 ?v_137) P0)) (or (or ?v_217 ?v_133) ?v_117)) (or (or ?v_104 ?v_81) ?v_227)) (or (or ?v_12 ?v_166) ?v_127)) (or (or P24 ?v_223) ?v_142)) (or (or ?v_57 ?v_104) ?v_40)) (or (or P19 ?v_175) ?v_211)) (or (or ?v_114 ?v_224) P40)) (or (or ?v_225 ?v_61) ?v_240)) (or (or ?v_119 ?v_135) ?v_226)) (or (or ?v_76 ?v_185) ?v_158)) (or (or ?v_207 P3) ?v_168)) (or (or ?v_191 ?v_77) P15)) (or (or ?v_148 ?v_117) ?v_101)) (or (or ?v_110 ?v_227) ?v_186)) (or (or ?v_96 P16) P26)) (or (or ?v_228 ?v_229) ?v_169)) (or (or P32 ?v_167) ?v_230)) (or (or ?v_231 ?v_190) ?v_52)) (or ?v_232 ?v_180)) (or (or ?v_139 P45) ?v_233)) (or (or P48 ?v_216) ?v_113)) (or (or ?v_149 ?v_234) ?v_227)) (or (or ?v_227 ?v_210) P39)) (or (or ?v_105 ?v_34) ?v_10)) (or (or ?v_65 ?v_101) ?v_75)) (or (or ?v_1 ?v_209) ?v_48)) (or (or ?v_53 ?v_117) ?v_137)) (or (or ?v_104 P36) ?v_235)) (or (or ?v_175 ?v_94) ?v_13)) (or (or ?v_109 ?v_104) P38)) (or (or ?v_228 ?v_199) ?v_48)) (or (or P26 ?v_42) ?v_142)) (or (or P46 P19) ?v_70)) (or (or ?v_50 ?v_159) ?v_236)) (or (or ?v_237 ?v_81) ?v_105)) (or (or ?v_54 ?v_88) ?v_238)) (or (or P8 ?v_179) ?v_222)) (or (or ?v_115 ?v_194) ?v_70)) (or (or ?v_234 ?v_117) ?v_119)) (or (or ?v_8 ?v_114) ?v_217)) (or (or ?v_108 ?v_2) ?v_81)) (or (or ?v_151 ?v_67) ?v_229)) (or (or ?v_89 P43) ?v_163)) (or (or P13 ?v_124) ?v_208)) (or (or ?v_219 ?v_226) ?v_107)) (or (or ?v_188 ?v_189) P49)) (or (or ?v_239 P16) ?v_211)) (or (or ?v_8 ?v_139) ?v_158)) (or (or ?v_189 ?v_202) ?v_65)) (or (or ?v_21 ?v_72) ?v_198)) (or (or P36 ?v_41) ?v_76)) (or (or ?v_227 ?v_12) P35)) (or (or ?v_100 ?v_236) ?v_203)) (or (or ?v_110 ?v_202) P10)) (or (or ?v_42 ?v_131) ?v_119)) (or (or ?v_147 ?v_53) ?v_226)) (or (or ?v_75 ?v_153) ?v_162)) (or (or ?v_106 ?v_100) ?v_206)) (or (or P45 ?v_93) ?v_88)) (or (or ?v_47 ?v_240) ?v_137)) (or (or ?v_183 ?v_163) ?v_65)) (or (or ?v_208 ?v_64) ?v_38)) (or (or ?v_52 ?v_16) ?v_175)) (or (or ?v_61 ?v_226) ?v_45)) (or (or ?v_162 ?v_40) P8)) (or (or P8 ?v_236) P14)) (or (or ?v_47 ?v_11) ?v_105)) (or (or ?v_136 ?v_231) ?v_106)) (or (or ?v_0 ?v_213) ?v_115)) (or (or ?v_196 ?v_181) ?v_30)) (or (or ?v_147 ?v_56) ?v_224)) (or (or ?v_103 ?v_91) ?v_135)) (or (or ?v_83 ?v_111) ?v_174)) (or (or ?v_210 ?v_9) ?v_155)) (or (or ?v_241 ?v_55) ?v_62)) (or (or P9 ?v_40) P46)) (or (or ?v_186 ?v_33) ?v_58)) (or (or P4 ?v_29) ?v_151)) (or (or ?v_205 ?v_172) ?v_209)) (or (or P30 P6) ?v_107)) (or (or ?v_121 ?v_49) P29)) (or (or P21 ?v_88) ?v_133)) (or (or ?v_242 ?v_243) ?v_34)) (or (or P19 ?v_108) ?v_156)) (or (or ?v_58 ?v_120) ?v_244)) (or (or ?v_20 ?v_73) ?v_226)) (or (or ?v_222 ?v_106) ?v_163)) (or (or P47 ?v_116) ?v_239)) (or (or ?v_245 ?v_210) P43)) (or (or ?v_89 ?v_157) ?v_148)) (or (or ?v_147 ?v_76) ?v_213)) (or (or P23 ?v_245) P0)) (or (or ?v_62 P45) ?v_55)) (or (or ?v_132 ?v_151) ?v_101)) (or (or ?v_18 ?v_87) ?v_21)) (or (or P31 ?v_128) ?v_146)) (or (or ?v_58 P25) P21)) (or (or ?v_166 P49) ?v_240)) (or (or ?v_111 ?v_172) ?v_164)) (or (or ?v_171 ?v_14) ?v_157)) (or (or P3 ?v_138) P11)) (or (or ?v_55 ?v_65) ?v_178)) (or (or ?v_160 ?v_69) ?v_208)) (or (or ?v_37 P18) P35)) (or (or ?v_262 ?v_71) ?v_7)) (or (or ?v_5 ?v_115) ?v_179)) (or (or ?v_87 ?v_164) ?v_129)) (or (or ?v_156 P4) ?v_100)) (or (or ?v_169 P6) ?v_125)) (or (or ?v_162 ?v_80) ?v_218)) (or (or ?v_135 ?v_3) ?v_86)) (or (or ?v_114 ?v_227) ?v_142)) (or (or ?v_238 ?v_246) P11)) (or (or ?v_63 ?v_196) ?v_69)) (or (or ?v_241 ?v_206) ?v_255)) (or (or ?v_79 ?v_225) ?v_171)) (or (or P37 ?v_219) ?v_63)) (or (or ?v_189 ?v_69) ?v_3)) (or (or ?v_236 ?v_196) ?v_247)) (or (or P43 ?v_29) ?v_203)) (or (or ?v_248 P28) ?v_150)) (or (or ?v_124 ?v_18) ?v_101)) (or (or ?v_37 P5) P43)) (or (or ?v_54 ?v_218) ?v_225)) (or (or ?v_207 ?v_127) P10)) (or (or P14 ?v_184) P2)) (or (or ?v_247 ?v_103) ?v_204)) (or (or ?v_160 ?v_155) P39)) (or (or ?v_235 ?v_45) ?v_53)) (or (or P4 ?v_208) ?v_145)) (or (or ?v_178 ?v_5) ?v_37)) (or (or ?v_118 ?v_182) P6)) (or (or ?v_170 ?v_193) ?v_168)) (or (or ?v_249 ?v_118) ?v_78)) (or (or ?v_151 ?v_179) P35)) (or (or ?v_250 ?v_224) ?v_189)) (or (or P24 ?v_176) ?v_162)) (or (or ?v_32 P16) ?v_81)) (or (or ?v_238 ?v_49) ?v_152)) (or (or ?v_254 ?v_61) ?v_200)) (or (or ?v_65 ?v_139) ?v_217)) (or (or ?v_148 P26) ?v_99)) (or (or P36 ?v_112) ?v_102)) (or (or ?v_124 P7) ?v_197)) (or (or ?v_137 ?v_197) ?v_35)) (or (or ?v_183 ?v_29) ?v_145)) (or (or ?v_152 ?v_117) ?v_202)) (or (or ?v_96 ?v_46) ?v_165)) (or (or ?v_15 ?v_72) ?v_167)) (or (or ?v_15 ?v_127) ?v_89)) (or (or ?v_139 P7) ?v_251)) (or (or P34 ?v_31) ?v_252)) (or (or ?v_7 ?v_97) ?v_21)) (or (or ?v_139 ?v_57) ?v_146)) (or (or ?v_210 ?v_14) ?v_161)) (or (or ?v_48 ?v_177) ?v_99)) (or (or ?v_11 ?v_171) ?v_253)) (or (or ?v_89 ?v_142) ?v_244)) (or (or ?v_163 ?v_64) ?v_254)) (or (or ?v_40 ?v_207) ?v_102)) (or (or ?v_136 P9) ?v_174)) (or (or P38 ?v_36) ?v_54)) (or (or ?v_16 ?v_110) ?v_199)) (or (or ?v_221 ?v_226) ?v_216)) (or (or ?v_246 ?v_150) ?v_234)) (or (or ?v_132 ?v_158) ?v_207)) (or (or ?v_202 ?v_221) ?v_35)) (or (or ?v_255 ?v_256) ?v_20)) (or (or P36 ?v_20) ?v_70)) (or (or ?v_88 P4) ?v_249)) (or (or ?v_252 ?v_101) ?v_167)) (or (or ?v_0 P14) ?v_126)) (or (or ?v_234 ?v_11) ?v_44)) (or (or ?v_89 ?v_119) P39)) (or (or P39 ?v_242) ?v_138)) (or (or ?v_143 P6) ?v_171)) (or (or ?v_141 P18) ?v_14)) (or (or ?v_58 ?v_150) P39)) (or (or ?v_57 ?v_194) ?v_252)) (or (or ?v_145 P30) ?v_202)) (or (or ?v_248 P35) ?v_134)) (or (or ?v_150 ?v_123) ?v_46)) (or (or ?v_94 ?v_27) ?v_34)) (or (or ?v_144 ?v_224) ?v_145)) (or (or ?v_255 ?v_56) ?v_206)) (or (or ?v_257 ?v_2) ?v_206)) (or (or ?v_258 ?v_179) ?v_91)) (or (or ?v_18 P27) ?v_138)) (or (or ?v_69 ?v_127) P42)) (or (or ?v_3 ?v_72) ?v_179)) (or (or ?v_80 ?v_212) ?v_105)) (or (or ?v_31 ?v_175) ?v_62)) (or (or P10 ?v_226) ?v_202)) (or (or ?v_104 ?v_224) ?v_193)) (or (or P1 ?v_69) P41)) (or (or ?v_245 ?v_45) P6)) (or (or P23 ?v_101) P16)) (or (or ?v_117 ?v_245) ?v_187)) (or (or ?v_245 ?v_120) ?v_109)) (or (or ?v_250 ?v_18) ?v_108)) (or (or P35 ?v_25) ?v_241)) (or (or P46 ?v_215) P15)) (or (or ?v_53 ?v_118) ?v_119)) (or (or ?v_25 ?v_61) ?v_108)) (or (or ?v_263 ?v_192) ?v_56)) (or (or ?v_45 ?v_12) P13)) (or (or ?v_37 ?v_233) ?v_139)) (or (or ?v_177 ?v_176) ?v_204)) (or (or ?v_68 ?v_152) ?v_103)) (or (or ?v_140 ?v_178) ?v_251)) (or (or P21 ?v_0) ?v_247)) (or (or ?v_2 ?v_201) ?v_125)) (or (or ?v_200 ?v_207) ?v_48)) (or (or ?v_174 P3) ?v_138)) (or (or ?v_102 ?v_255) ?v_210)) (or (or ?v_20 ?v_238) ?v_241)) (or (or ?v_138 P35) ?v_28)) (or (or P6 ?v_67) P17)) (or (or ?v_255 ?v_87) ?v_2)) (or (or P39 ?v_180) ?v_206)) (or (or ?v_160 ?v_252) ?v_259)) (or (or ?v_250 P21) ?v_64)) (or (or ?v_46 ?v_188) ?v_202)) (or (or ?v_44 ?v_182) ?v_26)) (or (or ?v_9 P39) ?v_88)) (or (or ?v_30 ?v_121) ?v_139)) (or (or P39 ?v_113) P49)) (or (or ?v_153 ?v_58) ?v_129)) (or (or ?v_136 ?v_255) ?v_114)) (or (or ?v_177 ?v_71) ?v_87)) (or (or ?v_207 ?v_205) ?v_169)) (or (or ?v_258 P9) ?v_245)) (or ?v_260 ?v_3)) (or (or ?v_144 ?v_248) P33)) (or (or ?v_32 P41) ?v_60)) (or (or ?v_213 ?v_19) ?v_222)) (or (or ?v_261 P7) P17)) (or (or P40 ?v_191) ?v_192)) (or (or P10 ?v_14) ?v_78)) (or (or ?v_57 ?v_234) ?v_44)) (or (or ?v_218 ?v_243) P31)) (or (or ?v_245 ?v_134) ?v_239)) (or (or ?v_26 ?v_79) ?v_122)) (or (or ?v_112 ?v_135) ?v_217)) (or (or P29 ?v_57) ?v_191)) (or (or ?v_69 ?v_153) ?v_184)) (or (or ?v_136 ?v_109) ?v_199)) (or (or ?v_212 ?v_261) ?v_257)) (or (or ?v_172 ?v_60) P20)) (or (or ?v_76 ?v_0) ?v_151)) (or (or ?v_9 ?v_8) ?v_47)) (or (or ?v_102 P24) ?v_186)) (or (or ?v_142 ?v_258) ?v_218)) (or (or ?v_256 ?v_124) ?v_262)) (or (or ?v_125 ?v_212) ?v_133)) (or (or ?v_82 ?v_213) ?v_63)) (or (or ?v_38 ?v_208) ?v_140)) (or (or P3 ?v_121) ?v_214)) (or (or ?v_187 ?v_259) ?v_206)) (or (or ?v_206 P45) ?v_169)) (or (or ?v_263 ?v_122) ?v_227)) (or (or ?v_199 ?v_256) ?v_112)) (or (or ?v_186 ?v_10) ?v_26)) (or (or ?v_37 ?v_224) ?v_157)) (or (or ?v_129 ?v_27) ?v_164)) (or (or ?v_147 ?v_69) ?v_56)) (or (or ?v_208 ?v_91) ?v_184)) (or (or ?v_197 ?v_33) P15)) (or (or ?v_249 P27) P24)) (or (or ?v_221 P30) P1)) (or (or ?v_219 ?v_117) ?v_197)) (or (or P26 ?v_242) ?v_31)) (or (or ?v_138 ?v_151) ?v_210)) (or (or ?v_88 ?v_118) P6)) (or (or ?v_107 ?v_134) ?v_98)) (or (or ?v_49 ?v_177) ?v_60)) (or (or ?v_20 ?v_261) ?v_235)) (or (or P46 ?v_212) P6)) (or (or ?v_32 ?v_171) ?v_236)) (or (or ?v_50 ?v_230) ?v_65)) (or (or P37 ?v_247) ?v_250)) (or (or ?v_110 P16) ?v_41)) (or (or ?v_52 ?v_78) ?v_115)) (or (or ?v_191 ?v_10) ?v_249)) (or (or ?v_109 P47) ?v_126)) (or (or ?v_96 ?v_200) ?v_255)) (or (or ?v_91 ?v_220) ?v_180)) (or (or ?v_149 ?v_49) ?v_39)) (or (or ?v_16 ?v_242) ?v_181)) (or (or ?v_170 ?v_180) P20)) (or (or ?v_13 ?v_193) ?v_197)) (or (or ?v_192 ?v_71) ?v_186)) (or (or ?v_77 P31) P30)) (or (or ?v_192 ?v_146) ?v_165)) (or (or ?v_38 ?v_159) ?v_44)) (or (or ?v_178 ?v_91) ?v_4)) (or (or ?v_29 ?v_152) P12)) (or (or ?v_63 ?v_107) ?v_103)) (or (or ?v_4 ?v_255) ?v_198)) (or (or ?v_70 ?v_135) ?v_45)) (or (or ?v_196 ?v_151) ?v_194)) (or (or ?v_222 ?v_238) ?v_168)) (or (or ?v_193 ?v_76) ?v_253)) (or (or ?v_238 ?v_106) ?v_104)) (or (or ?v_187 ?v_10) ?v_5)) (or (or ?v_142 ?v_14) P49)) (or (or P16 ?v_229) ?v_208)) (or (or ?v_39 ?v_227) ?v_25)) (or (or P42 P45) ?v_41)) (or (or ?v_121 ?v_68) ?v_42)) (or (or ?v_110 ?v_67) P40)) (or (or P30 ?v_231) ?v_87)) (or (or P49 P49) P40)) (or (or ?v_206 P44) ?v_257))))))))))))))))))))))))))))))))))))))
(check-sat)
(exit)
